Route #1: 26 44 64 59 48
Route #2: 32 12 9 2 6 62
Route #3: 55 18 17 1 20 52
Route #4: 23 45 38 19 35 30 61 7 11
Route #5: 53 54 57 31 13 43 56 22
Route #6: 58 42 15 60 4 65 8 40 33
Route #7: 28 47 50 16 63 46 10
Route #8: 41 51 34 37 25 24 49
Route #9: 27 5 39 36 21 29 3 14
cost 1611.2010498046875